param L := 552;

set MODULI := M1 M2 M3 M4 M5 M6 M7 M8 M9 ;

param d :=
  M1 9
  M2 3
  M3 2
  M4 5
  M5 7
  M6 4
  M7 1
  M8 6
  M9 4
;

param l :=
  M1 27
  M2 37
  M3 39
  M4 22
  M5 14
  M6 46
  M7 33
  M8 24
  M9 45
;
